(declare-const x real)
(declare-const y real)
(assert (>= 5 (- x y)))
(assert (>= x 0))
(assert (>= 4 y))
(assert (> y 0))
(minimize x)
(maximize (+ x y))
(minimize y)
(maximize y)
(set-option :opt.priority box)
(check-sat)